nodesNumber=5;
% 0 - wypelnia miejsca w ktorej mogliby byc inni sasiedzi ale ich nie ma
graph = array2d(1..5, 1..5, [   
  2,  3,  0,  0,  0,
  1,  3,  0,  0,  0,
  1,  2,  4,  5,  0,
  3,  5,  0,  0,  0,
  3,  4,  0,  0,  0
]);